&PROJWFC
  prefix= 'silicene_pdos',
  outdir= '.',
  filpdos= 'silicene_pdos.dat'
/
