&BANDS
  prefix = 'silicene_bands'
  outdir = '.'
  filband = 'silicene_bands.dat'
/
