&CONTROL
    calculation = 'bands'
    prefix      = 'silicene_bands',
    outdir      = '.',
    pseudo_dir  = '../pseudos/',
/
&SYSTEM
    ibrav = -9
    celldm(1) = 7.2962
    celldm(2) = 1.7321
    celldm(3) = 5.1800
    nat = 2
    ntyp = 1
    ecutwfc = 50.0,
    ecutrho = 500.0,
    nbnd=8
/
&ELECTRONS
    conv_thr = 1.0d-8
/
ATOMIC_SPECIES
Si 28.0855 Si.pbe-n-kjpaw_psl.1.0.0.UPF
ATOMIC_POSITIONS crystal
Si           0.6666666667       0.3333333333       0.3952910667 
Si           0.3333333333       0.6666666667       0.4172089333 
K_POINTS {crystal_b}
4
# Gamma-M-K-Gamma
  0.0000000000     0.0000000000     0.0000000000     40
  0.0000000000     0.5000000000     0.0000000000     20
  0.3333333333     0.3333333333     0.0000000000     34
  0.0000000000     0.0000000000     0.0000000000     0
