&CONTROL
  calculation = 'scf'
  prefix = 'silicene_dos'
  outdir = '.'
  pseudo_dir = '../pseudos/'
/

&SYSTEM
  ibrav = -9
  celldm(1) = 7.2962
  celldm(2) = 1.7321
  celldm(3) = 5.1800
  nat = 2
  ntyp = 1
  ecutwfc = 50
  ecutrho = 500
  occupations = 'smearing'
  smearing = 'gaussian'
  degauss = 0.01  
/

&ELECTRONS
  conv_thr =   1d-8
/

ATOMIC_SPECIES
Si 28.0855 Si.pbe-n-kjpaw_psl.1.0.0.UPF
ATOMIC_POSITIONS crystal
Si           0.6666666667       0.3333333333       0.3952910667 
Si           0.3333333333       0.6666666667       0.4172089333 
K_POINTS automatic
10 10 1 0 0 0
